c SAT Generator for power-law distributed variable frequencies
c -g u -v 20 -c 91 -k 3 -p 2.750000 -b 3.200000 -f /home/schmidt/Devel/ni-kop-sat/data/ensemble/ruf20-91/ruf20-91-398 -u 1 -U 1 -s 2028903998
p cnf 20 91
3 14 -19 0
2 -11 14 0
6 -9 14 0
-10 11 -16 0
-9 -15 -16 0
-3 8 11 0
4 -13 16 0
-2 12 -18 0
-12 17 18 0
-1 -3 20 0
-4 -5 7 0
-9 17 19 0
12 -14 -17 0
15 -16 -17 0
-6 -15 -16 0
9 10 -11 0
-5 -6 -12 0
12 13 -18 0
3 13 18 0
-6 13 14 0
-3 -9 -13 0
-8 -10 -11 0
4 -16 18 0
-5 -9 -16 0
-5 8 18 0
5 -10 -11 0
-1 -2 -20 0
1 -14 17 0
-1 -5 -19 0
7 -11 18 0
16 -17 19 0
-4 7 -20 0
-1 -16 -18 0
-11 17 -19 0
-6 7 17 0
-5 -7 -8 0
3 13 20 0
-2 -8 10 0
-8 -9 12 0
1 -6 18 0
5 14 20 0
-5 7 9 0
1 -2 -9 0
-17 19 -20 0
4 -5 -16 0
-14 16 18 0
6 -19 -20 0
-1 10 13 0
9 10 16 0
8 19 -20 0
-13 15 18 0
8 -12 14 0
-12 -16 18 0
4 6 18 0
-3 -9 10 0
12 -13 18 0
5 -7 -10 0
-3 -8 -10 0
-4 -9 18 0
-6 -9 -17 0
-8 11 -19 0
-1 -11 -16 0
1 -3 -4 0
-8 17 19 0
-3 -6 13 0
-3 13 -17 0
2 3 4 0
-1 5 11 0
9 14 -20 0
-7 -14 16 0
3 -13 -15 0
1 12 -15 0
3 -9 13 0
-4 16 -20 0
3 -6 -13 0
7 10 -13 0
8 11 -20 0
7 -11 19 0
7 8 -15 0
-5 13 16 0
-5 -6 13 0
-7 -8 -12 0
3 -12 17 0
2 17 -20 0
-3 9 16 0
4 16 -17 0
6 13 -14 0
5 9 18 0
-3 9 17 0
-6 7 -20 0
-1 -13 20 0
